12
45
19
31
37
7
11
33
42
11
38
3
9
32
56
17
55
44
24
14
35
24
13
21
13
23
8
19
21
23
26
11
29
34
26
23
35
14
27
33
29
3
40
7
2
61
29
39
41
26
9
43
25
66
17
18
22
23
16
34
44
22
34
25
34
24
43
11
33
25
33
19
24
22
7
33
24
33
24
8
15
19
23
24
26
6
3
30
24
28
28
34
29
34
28
27
34
28
12
20
